\ Model (null)_copy
\ LP format - for model browsing. Use MPS format to capture full model detail.
Minimize
 
Subject To
 C73: X4 + 9999 X84 >= 3
 C75: X5 + 9999 X85 >= 9
 C76: X5 - 9999 X86 >= -9995
 C78: - X4 + X5 - 9999 X87 >= -9990
 C83: - X4 + X5 + 9999 X89 <= 10000
 C84: X4 + X5 + 9999 X90 >= 4
 C213: X178 - X262 >= 0
 C219: X176 + X177 + X178 + X179 - 4 X180 <= 0
 C222: - X178 - X179 + X183 + X184 = 0
 C225: - 9999 X180 - 4 X181 - 6 X182 - 4 X183 - 6 X184 + X187 >= -9999
 C419: X4 + 9999 X424 >= 11
 C423: X5 - 9999 X426 <= -1
 C425: - X4 + X5 - 9999 X427 <= -4
 C599: X4 + X5 + 9999 X600 >= 15
 C1046: - X103 - X273 - X443 - X613 + X1339 <= 0
 C1063: - X93 + X1111 >= 0
 C1144: X1108 + X1109 + X1110 + X1111 - 4 X1112 <= 0
 C1153: X1051 + X1117 <= 1
 C1205: X1185 <= 0
 C1212: X1186 <= 0
 C1215: X1187 <= 0
 C1216: - X433 + X1188 <= 0
 C1222: X1185 + X1186 + X1187 + X1188 - X1189 >= 0
 C1282: X1262 <= 0
 C1283: - X604 + X1263 <= 0
 C1292: X1264 <= 0
 C1295: X1265 <= 0
 C1297: X1262 + X1263 + X1264 + X1265 - X1266 >= 0
 C1303: X1266 - X1271 - X1282 - X1293 >= 0
 C1369: - X103 - X273 - X443 - X613 + 4 X1659 >= 0
 C1371: - X91 + X1351 <= 0
 C1378: - X94 + X1352 <= 0
 C1381: - X92 + X1353 <= 0
 C1388: X1354 <= 0
 C1390: X1351 + X1352 + X1353 + X1354 - X1355 >= 0
 C1454: X1428 <= 0
 C1459: X1429 <= 0
 C1460: - X262 + X1430 <= 0
 C1467: X1431 <= 0
 C1469: X1428 + X1429 + X1430 + X1431 - X1432 >= 0
 C1529: X1505 <= 0
 C1530: - X434 + X1506 <= 0
 C1539: X1507 <= 0
 C1544: X1508 <= 0
 C1546: X1505 + X1506 + X1507 + X1508 - X1509 >= 0
 C1604: - X601 + X1582 <= 0
 C1611: X1583 <= 0
 C1616: X1584 <= 0
 C1619: X1585 <= 0
 C1621: X1582 + X1583 + X1584 + X1585 - X1586 >= 0
 C86: X88 + X90 + 3 X91 + [ X83 * X85 ] <= 3
 C88: X87 + X89 + 3 X92 + [ X84 * X85 ] <= 3
 C91: X87 + X89 + X93 + [ X83 * X86 ] >= 1
 C92: X88 + X90 + 3 X94 + [ X84 * X86 ] <= 3
 C436: X427 + X429 + 3 X433 + [ X423 * X426 ] <= 3
 C438: X428 + X430 + 3 X434 + [ X424 * X426 ] <= 3
 C601: X598 + X600 + 3 X601 + [ X593 * X595 ] <= 3
 C607: X598 + X600 + 3 X604 + [ X594 * X596 ] <= 3
 C1042: - X1339 + [ X1035 * X1084 + X1112 * X1161 + X1189 * X1238
   + X1266 * X1315 ] = 0
 C1070: X1035 - X1085 + [ - X1051 * X1112 - X1062 * X1189 - X1073 * X1266 ]
   = 0
 C1071: X1035 - X1084 + [ - X1035 * X1117 - X1035 * X1194 - X1035 * X1271 ]
   = 0
 C1150: X1112 - X1161 + [ - X1051 * X1112 - X1112 * X1205 - X1112 * X1282 ]
   = 0
 C1226: X1189 - X1239 + [ - X1035 * X1194 - X1112 * X1205 - X1227 * X1266 ]
   = 0
 C1366: - X1659 + [ X1355 * X1404 + X1432 * X1481 + X1509 * X1558
   + X1586 * X1635 ] = 0
Bounds
 X4 = 0
 X5 = 3
Binaries
 X83 X84 X85 X86 X87 X88 X89 X90 X91 X92 X93 X94 X103 X176 X177 X178 X179
 X180 X181 X182 X183 X184 X187 X262 X273 X423 X424 X426 X427 X428 X429 X430
 X433 X434 X443 X593 X594 X595 X596 X598 X600 X601 X604 X613 X1035 X1051
 X1062 X1073 X1084 X1085 X1108 X1109 X1110 X1111 X1112 X1117 X1161 X1185
 X1186 X1187 X1188 X1189 X1194 X1205 X1227 X1238 X1239 X1262 X1263 X1264
 X1265 X1266 X1271 X1282 X1293 X1315 X1339 X1351 X1352 X1353 X1354 X1355
 X1404 X1428 X1429 X1430 X1431 X1432 X1481 X1505 X1506 X1507 X1508 X1509
 X1558 X1582 X1583 X1584 X1585 X1586 X1635 X1659
Generals
 X4 X5
End
